c cnf/c2d_montyhall.cnf
c
c weights 1 1 0.3333333333333333 1 1 1 0.3333333333333333 1 1 1 0.3333333333333333 1 1 1 1 1 0.5 1 1 1 0.5 1 1 1 1 1 1 1 1.0 0.0 
p cnf 15 35
8 -9 0
10 -11 0
1 -2 0
1 -12 0
2 -1 0
3 -4 0
4 -3 0
5 -6 0
6 -5 0
14 -15 0
15 -14 0
7 -9 0
7 -11 0
12 -1 0
2 4 6 0
3 5 7 0
-9 -11 0
-2 -4 0
-2 -6 0
-3 -7 0
-4 -6 0
-5 -7 0
8 3 -5 0
8 13 -3 0
9 11 -7 0
9 5 -8 0
10 5 -3 0
10 13 -5 0
11 3 -10 0
3 5 -13 0
9 -8 -3 0
11 -10 -5 0
3 -10 -13 0
5 -8 -13 0
-8 -10 -13 0
